param Riesgos:=
0[1]	1	
1[1]
2[1]
3[1]
4[1]	1		4		5	
5[1]	1		4	
6[1]	1		5	
7[1]	3		4		5	
8[1]
9[1]	4		6	
10[1]	2	
11[1]	4		6	
12[1]
13[1]	1		5		6	
14[1]	1		3		4	
0[2]	3		6	
1[2]	5	
2[2]	3		4	
3[2]
0[3]	1		2		4	
1[3]	3		6	
2[3]	2		4		5	
3[3]	6	
4[3]	1		5	
5[3]	2		4	
6[3]	2		3	
7[3]	3		5		6	
8[3]	1		2		4	
9[3]	1	
10[3]
